
Gurobi 11.0.0 (linux64) logging started Fri Apr 12 22:43:56 2024

Set parameter LogFile to value "/lustre1/scratch/348/vsc34888/JointResearch/05.Models/06.Benchmarking/K.Investments_per_hour/9n_ByStages_nc60/openStarNet_9n_ByStages_nc60.log"
Set parameter Method to value 2
Set parameter MIPFocus to value 1
Set parameter Presolve to value 2
Set parameter RINS to value 100
Set parameter MIPGap to value 0.01
Set parameter Threads to value 36
Set parameter TimeLimit to value 259200
Set parameter IterationLimit to value 760000000
Gurobi Optimizer version 11.0.0 build v11.0.0rc2 (linux64 - "Rocky Linux 8.8 (Green Obsidian)")

CPU model: Intel(R) Xeon(R) Gold 6140 CPU @ 2.30GHz, instruction set [SSE2|AVX|AVX2|AVX512]
Thread count: 36 physical cores, 36 logical processors, using up to 36 threads

Optimize a model with 15723 rows, 8277 columns and 47299 nonzeros
Model fingerprint: 0xbb51744a
Variable types: 8241 continuous, 36 integer (36 binary)
Coefficient statistics:
  Matrix range     [8e-04, 9e+02]
  Objective range  [1e+00, 1e+00]
  Bounds range     [4e-04, 2e+00]
  RHS range        [4e-04, 1e+00]
Presolve removed 5343 rows and 2824 columns
Presolve time: 0.08s
Presolved: 10380 rows, 5453 columns, 35417 nonzeros
Variable types: 5417 continuous, 36 integer (36 binary)
Found heuristic solution: objective 910.6154771
Root relaxation presolved: 10380 rows, 5453 columns, 35417 nonzeros

Root barrier log...

Ordering time: 0.01s

Barrier statistics:
 Dense cols : 36
 AA' NZ     : 1.229e+05
 Factor NZ  : 2.433e+05 (roughly 8 MB of memory)
 Factor Ops : 8.104e+06 (less than 1 second per iteration)
 Threads    : 36

                  Objective                Residual
Iter       Primal          Dual         Primal    Dual     Compl     Time
   0   4.85035136e+05 -2.31876890e+07  7.32e+00 1.97e+02  4.52e+03     0s
   1   7.93140696e+04 -9.54872670e+06  1.05e+00 1.24e-09  7.06e+02     0s
   2   1.48422962e+04 -2.06396138e+06  3.00e-02 2.38e-09  1.05e+02     0s
   3   5.42947778e+03 -4.77534833e+04  3.64e-14 7.22e-11  2.62e+00     0s
   4   1.36455025e+03 -1.19555812e+04  2.66e-14 1.66e-11  6.57e-01     0s
   5   7.03732833e+02 -4.19040255e+03  3.91e-14 6.00e-12  2.42e-01     0s
   6   5.30785468e+02 -1.11747336e+03  2.40e-14 1.65e-12  8.13e-02     0s
   7   3.25715100e+02 -2.56305594e+02  1.43e-13 9.09e-13  2.87e-02     0s
   8   1.69618539e+02 -1.16092210e+01  4.34e-13 9.09e-13  8.94e-03     0s
   9   1.16121025e+02  6.61065264e+01  1.36e-12 9.09e-13  2.47e-03     0s
  10   1.01650882e+02  8.54725782e+01  6.18e-12 9.09e-13  7.98e-04     0s
  11   9.50138488e+01  8.78547474e+01  4.68e-12 9.09e-13  3.53e-04     0s
  12   9.29735638e+01  8.85307175e+01  7.98e-12 4.55e-13  2.19e-04     0s
  13   9.25637630e+01  8.96136607e+01  7.01e-12 9.09e-13  1.46e-04     0s
  14   9.15045723e+01  9.01711348e+01  8.17e-11 9.09e-13  6.58e-05     0s
  15   9.09994682e+01  9.06218855e+01  7.06e-11 9.09e-13  1.86e-05     0s
  16   9.08715385e+01  9.08316128e+01  2.02e-10 9.09e-13  1.97e-06     0s
  17   9.08474919e+01  9.08470357e+01  2.70e-10 9.09e-13  2.25e-08     1s
  18   9.08472245e+01  9.08472240e+01  3.80e-10 9.09e-13  2.54e-11     1s

Barrier solved model in 18 iterations and 0.53 seconds (0.26 work units)
Optimal objective 9.08472245e+01


Root relaxation: objective 9.084722e+01, 600 iterations, 0.48 seconds (0.12 work units)

    Nodes    |    Current Node    |     Objective Bounds      |     Work
 Expl Unexpl |  Obj  Depth IntInf | Incumbent    BestBd   Gap | It/Node Time

     0     0   90.84722    0    6  910.61548   90.84722  90.0%     -    0s
H    0     0                     807.6277318   90.84722  88.8%     -    0s
H    0     0                     171.1045772   90.84722  46.9%     -    1s
     0     0   98.47252    0    2  171.10458   98.47252  42.4%     -    1s
H    0     0                     102.0898091   98.47252  3.54%     -    1s
H    0     0                      99.5632994   98.47252  1.10%     -    1s
     0     0   99.56330    0    2   99.56330   99.56330  0.00%     -    1s

Cutting planes:
  Gomory: 2
  MIR: 49
  RLT: 1
  Relax-and-lift: 9

Explored 1 nodes (754 simplex iterations) in 1.24 seconds (0.40 work units)
Thread count was 36 (of 36 available processors)

Solution count 5: 99.5633 102.09 171.105 ... 910.615

Optimal solution found (tolerance 1.00e-02)
Best objective 9.956329941447e+01, best bound 9.956329941447e+01, gap 0.0000%

Gurobi 11.0.0 (linux64) logging started Fri Apr 12 22:43:59 2024

Set parameter LogFile to value "/lustre1/scratch/348/vsc34888/JointResearch/05.Models/06.Benchmarking/K.Investments_per_hour/9n_ByStages_nc60/openStarNet_9n_ByStages_nc60.log"
Set parameter Method to value 2
Set parameter MIPFocus to value 1
Set parameter Presolve to value 2
Set parameter RINS to value 100
Set parameter MIPGap to value 0.01
Set parameter Threads to value 36
Set parameter TimeLimit to value 259200
Set parameter IterationLimit to value 760000000
Gurobi Optimizer version 11.0.0 build v11.0.0rc2 (linux64 - "Rocky Linux 8.8 (Green Obsidian)")

CPU model: Intel(R) Xeon(R) Gold 6140 CPU @ 2.30GHz, instruction set [SSE2|AVX|AVX2|AVX512]
Thread count: 36 physical cores, 36 logical processors, using up to 36 threads

Optimize a model with 15723 rows, 8241 columns and 38623 nonzeros
Model fingerprint: 0xb44a5c79
Coefficient statistics:
  Matrix range     [8e-04, 9e+02]
  Objective range  [1e+00, 1e+00]
  Bounds range     [4e-04, 2e+00]
  RHS range        [4e-04, 2e+01]
Presolve removed 14283 rows and 5499 columns
Presolve time: 0.02s
Presolved: 1440 rows, 2768 columns, 6302 nonzeros

Ordering time: 0.00s

Barrier statistics:
 AA' NZ     : 3.328e+03
 Factor NZ  : 1.178e+04 (roughly 2 MB of memory)
 Factor Ops : 1.165e+05 (less than 1 second per iteration)
 Threads    : 1

                  Objective                Residual
Iter       Primal          Dual         Primal    Dual     Compl     Time
   0   3.55805337e+05 -4.18024882e+06  5.57e+00 3.02e+02  3.31e+03     0s
   1   4.49166828e+04 -2.12986824e+06  5.18e-01 2.95e-12  5.00e+02     0s
   2   1.04846529e+04 -2.93990203e+05  5.19e-03 2.49e-12  4.82e+01     0s
   3   3.11794252e+03 -1.00800195e+04  2.30e-15 2.26e-12  2.07e+00     0s
   4   8.78063929e+02 -1.52633754e+03  1.58e-15 9.09e-13  3.77e-01     0s
   5   4.33311888e+02 -3.36458099e+02  9.44e-16 9.09e-13  1.21e-01     0s
   6   2.52310500e+02 -1.16558713e+02  5.55e-16 4.55e-13  5.78e-02     0s
   7   1.68024297e+02  3.18186102e+01  5.77e-15 9.09e-13  2.13e-02     0s
   8   1.29970700e+02  7.18750206e+01  1.59e-14 9.09e-13  9.10e-03     0s
   9   1.07768379e+02  9.20372466e+01  1.50e-14 9.09e-13  2.46e-03     0s
  10   1.00759260e+02  9.79669006e+01  2.97e-14 4.55e-13  4.37e-04     0s
  11   9.98076008e+01  9.92704596e+01  3.62e-14 9.09e-13  8.41e-05     0s
  12   9.96360575e+01  9.95082327e+01  2.29e-13 9.09e-13  2.00e-05     0s
  13   9.95801040e+01  9.95444050e+01  3.44e-12 4.55e-13  5.59e-06     0s
  14   9.95635261e+01  9.95627347e+01  2.80e-12 9.09e-13  1.24e-07     0s
  15   9.95632997e+01  9.95632988e+01  9.92e-12 9.09e-13  1.29e-10     0s
  16   9.95632994e+01  9.95632994e+01  1.13e-11 9.09e-13  1.29e-13     0s

Barrier solved model in 16 iterations and 0.03 seconds (0.03 work units)
Optimal objective 9.95632994e+01

Crossover log...

     696 DPushes remaining with DInf 0.0000000e+00                 0s
       0 DPushes remaining with DInf 0.0000000e+00                 0s

      12 PPushes remaining with PInf 0.0000000e+00                 0s
       0 PPushes remaining with PInf 0.0000000e+00                 0s

  Push phase complete: Pinf 0.0000000e+00, Dinf 4.2663572e-14      0s

Iteration    Objective       Primal Inf.    Dual Inf.      Time
      49    9.9563299e+01   0.000000e+00   0.000000e+00      0s

Solved in 49 iterations and 0.04 seconds (0.03 work units)
Optimal objective  9.956329941e+01
